c File: flat50_3_0.col
c
c SOURCE: Joseph Culberson (joe@cs.ualberta.ca)
c DESCRIPTION: Quasi-random coloring problem
c              generated with flatness = 0
c                             probability = 0.139
c                             known coloring = 3
c                             random seed = 1202
c              Creation Date:  Tue Jun  9 12:03:37 1998
c Maximum degree = 8 Minimum degree = 2
c p edge 50 115
c cnf created by edge2cnf
p cnf 150 545
-1 -2 0
-1 -3 0
-2 -3 0
1 2 3 0
-4 -5 0
-4 -6 0
-5 -6 0
4 5 6 0
-7 -8 0
-7 -9 0
-8 -9 0
7 8 9 0
-10 -11 0
-10 -12 0
-11 -12 0
10 11 12 0
-13 -14 0
-13 -15 0
-14 -15 0
13 14 15 0
-16 -17 0
-16 -18 0
-17 -18 0
16 17 18 0
-19 -20 0
-19 -21 0
-20 -21 0
19 20 21 0
-22 -23 0
-22 -24 0
-23 -24 0
22 23 24 0
-25 -26 0
-25 -27 0
-26 -27 0
25 26 27 0
-28 -29 0
-28 -30 0
-29 -30 0
28 29 30 0
-31 -32 0
-31 -33 0
-32 -33 0
31 32 33 0
-34 -35 0
-34 -36 0
-35 -36 0
34 35 36 0
-37 -38 0
-37 -39 0
-38 -39 0
37 38 39 0
-40 -41 0
-40 -42 0
-41 -42 0
40 41 42 0
-43 -44 0
-43 -45 0
-44 -45 0
43 44 45 0
-46 -47 0
-46 -48 0
-47 -48 0
46 47 48 0
-49 -50 0
-49 -51 0
-50 -51 0
49 50 51 0
-52 -53 0
-52 -54 0
-53 -54 0
52 53 54 0
-55 -56 0
-55 -57 0
-56 -57 0
55 56 57 0
-58 -59 0
-58 -60 0
-59 -60 0
58 59 60 0
-61 -62 0
-61 -63 0
-62 -63 0
61 62 63 0
-64 -65 0
-64 -66 0
-65 -66 0
64 65 66 0
-67 -68 0
-67 -69 0
-68 -69 0
67 68 69 0
-70 -71 0
-70 -72 0
-71 -72 0
70 71 72 0
-73 -74 0
-73 -75 0
-74 -75 0
73 74 75 0
-76 -77 0
-76 -78 0
-77 -78 0
76 77 78 0
-79 -80 0
-79 -81 0
-80 -81 0
79 80 81 0
-82 -83 0
-82 -84 0
-83 -84 0
82 83 84 0
-85 -86 0
-85 -87 0
-86 -87 0
85 86 87 0
-88 -89 0
-88 -90 0
-89 -90 0
88 89 90 0
-91 -92 0
-91 -93 0
-92 -93 0
91 92 93 0
-94 -95 0
-94 -96 0
-95 -96 0
94 95 96 0
-97 -98 0
-97 -99 0
-98 -99 0
97 98 99 0
-100 -101 0
-100 -102 0
-101 -102 0
100 101 102 0
-103 -104 0
-103 -105 0
-104 -105 0
103 104 105 0
-106 -107 0
-106 -108 0
-107 -108 0
106 107 108 0
-109 -110 0
-109 -111 0
-110 -111 0
109 110 111 0
-112 -113 0
-112 -114 0
-113 -114 0
112 113 114 0
-115 -116 0
-115 -117 0
-116 -117 0
115 116 117 0
-118 -119 0
-118 -120 0
-119 -120 0
118 119 120 0
-121 -122 0
-121 -123 0
-122 -123 0
121 122 123 0
-124 -125 0
-124 -126 0
-125 -126 0
124 125 126 0
-127 -128 0
-127 -129 0
-128 -129 0
127 128 129 0
-130 -131 0
-130 -132 0
-131 -132 0
130 131 132 0
-133 -134 0
-133 -135 0
-134 -135 0
133 134 135 0
-136 -137 0
-136 -138 0
-137 -138 0
136 137 138 0
-139 -140 0
-139 -141 0
-140 -141 0
139 140 141 0
-142 -143 0
-142 -144 0
-143 -144 0
142 143 144 0
-145 -146 0
-145 -147 0
-146 -147 0
145 146 147 0
-148 -149 0
-148 -150 0
-149 -150 0
148 149 150 0
-52 -1 0
-53 -2 0
-54 -3 0
-85 -1 0
-86 -2 0
-87 -3 0
-97 -1 0
-98 -2 0
-99 -3 0
-106 -1 0
-107 -2 0
-108 -3 0
-130 -1 0
-131 -2 0
-132 -3 0
-61 -4 0
-62 -5 0
-63 -6 0
-67 -4 0
-68 -5 0
-69 -6 0
-118 -4 0
-119 -5 0
-120 -6 0
-130 -4 0
-131 -5 0
-132 -6 0
-145 -4 0
-146 -5 0
-147 -6 0
-148 -4 0
-149 -5 0
-150 -6 0
-70 -7 0
-71 -8 0
-72 -9 0
-85 -7 0
-86 -8 0
-87 -9 0
-145 -7 0
-146 -8 0
-147 -9 0
-61 -10 0
-62 -11 0
-63 -12 0
-82 -10 0
-83 -11 0
-84 -12 0
-97 -10 0
-98 -11 0
-99 -12 0
-112 -10 0
-113 -11 0
-114 -12 0
-136 -10 0
-137 -11 0
-138 -12 0
-142 -10 0
-143 -11 0
-144 -12 0
-64 -13 0
-65 -14 0
-66 -15 0
-112 -13 0
-113 -14 0
-114 -15 0
-118 -13 0
-119 -14 0
-120 -15 0
-130 -13 0
-131 -14 0
-132 -15 0
-148 -13 0
-149 -14 0
-150 -15 0
-61 -16 0
-62 -17 0
-63 -18 0
-64 -16 0
-65 -17 0
-66 -18 0
-136 -16 0
-137 -17 0
-138 -18 0
-145 -16 0
-146 -17 0
-147 -18 0
-64 -19 0
-65 -20 0
-66 -21 0
-94 -19 0
-95 -20 0
-96 -21 0
-118 -19 0
-119 -20 0
-120 -21 0
-124 -19 0
-125 -20 0
-126 -21 0
-91 -22 0
-92 -23 0
-93 -24 0
-97 -22 0
-98 -23 0
-99 -24 0
-58 -25 0
-59 -26 0
-60 -27 0
-64 -25 0
-65 -26 0
-66 -27 0
-76 -25 0
-77 -26 0
-78 -27 0
-67 -28 0
-68 -29 0
-69 -30 0
-76 -28 0
-77 -29 0
-78 -30 0
-88 -28 0
-89 -29 0
-90 -30 0
-103 -28 0
-104 -29 0
-105 -30 0
-115 -28 0
-116 -29 0
-117 -30 0
-58 -31 0
-59 -32 0
-60 -33 0
-61 -31 0
-62 -32 0
-63 -33 0
-79 -31 0
-80 -32 0
-81 -33 0
-82 -31 0
-83 -32 0
-84 -33 0
-106 -31 0
-107 -32 0
-108 -33 0
-109 -31 0
-110 -32 0
-111 -33 0
-139 -31 0
-140 -32 0
-141 -33 0
-76 -34 0
-77 -35 0
-78 -36 0
-100 -34 0
-101 -35 0
-102 -36 0
-115 -34 0
-116 -35 0
-117 -36 0
-133 -34 0
-134 -35 0
-135 -36 0
-73 -37 0
-74 -38 0
-75 -39 0
-88 -37 0
-89 -38 0
-90 -39 0
-94 -37 0
-95 -38 0
-96 -39 0
-100 -37 0
-101 -38 0
-102 -39 0
-106 -37 0
-107 -38 0
-108 -39 0
-109 -37 0
-110 -38 0
-111 -39 0
-124 -37 0
-125 -38 0
-126 -39 0
-142 -37 0
-143 -38 0
-144 -39 0
-55 -40 0
-56 -41 0
-57 -42 0
-91 -40 0
-92 -41 0
-93 -42 0
-121 -40 0
-122 -41 0
-123 -42 0
-112 -43 0
-113 -44 0
-114 -45 0
-124 -43 0
-125 -44 0
-126 -45 0
-70 -46 0
-71 -47 0
-72 -48 0
-76 -46 0
-77 -47 0
-78 -48 0
-109 -46 0
-110 -47 0
-111 -48 0
-136 -46 0
-137 -47 0
-138 -48 0
-55 -49 0
-56 -50 0
-57 -51 0
-73 -49 0
-74 -50 0
-75 -51 0
-94 -49 0
-95 -50 0
-96 -51 0
-109 -49 0
-110 -50 0
-111 -51 0
-124 -49 0
-125 -50 0
-126 -51 0
-130 -49 0
-131 -50 0
-132 -51 0
-133 -49 0
-134 -50 0
-135 -51 0
-139 -52 0
-140 -53 0
-141 -54 0
-145 -52 0
-146 -53 0
-147 -54 0
-124 -55 0
-125 -56 0
-126 -57 0
-130 -55 0
-131 -56 0
-132 -57 0
-148 -55 0
-149 -56 0
-150 -57 0
-142 -58 0
-143 -59 0
-144 -60 0
-103 -64 0
-104 -65 0
-105 -66 0
-142 -64 0
-143 -65 0
-144 -66 0
-148 -64 0
-149 -65 0
-150 -66 0
-139 -67 0
-140 -68 0
-141 -69 0
-115 -70 0
-116 -71 0
-117 -72 0
-124 -70 0
-125 -71 0
-126 -72 0
-106 -73 0
-107 -74 0
-108 -75 0
-130 -73 0
-131 -74 0
-132 -75 0
-145 -73 0
-146 -74 0
-147 -75 0
-139 -76 0
-140 -77 0
-141 -78 0
-145 -76 0
-146 -77 0
-147 -78 0
-148 -76 0
-149 -77 0
-150 -78 0
-115 -79 0
-116 -80 0
-117 -81 0
-124 -79 0
-125 -80 0
-126 -81 0
-112 -82 0
-113 -83 0
-114 -84 0
-118 -82 0
-119 -83 0
-120 -84 0
-121 -82 0
-122 -83 0
-123 -84 0
-127 -85 0
-128 -86 0
-129 -87 0
-136 -85 0
-137 -86 0
-138 -87 0
-142 -85 0
-143 -86 0
-144 -87 0
-124 -88 0
-125 -89 0
-126 -90 0
-148 -88 0
-149 -89 0
-150 -90 0
-115 -91 0
-116 -92 0
-117 -93 0
-118 -94 0
-119 -95 0
-120 -96 0
-127 -94 0
-128 -95 0
-129 -96 0
-145 -94 0
-146 -95 0
-147 -96 0
-127 -97 0
-128 -98 0
-129 -99 0
-109 -100 0
-110 -101 0
-111 -102 0
-112 -100 0
-113 -101 0
-114 -102 0
-121 -100 0
-122 -101 0
-123 -102 0
-139 -100 0
-140 -101 0
-141 -102 0
